34
120
96	2
94	1
90	3
89	1
88	1
86	2
85	1
81	1
75	2
72	1
70	1
64	1
63	1
62	1
59	3
56	1
53	2
46	1
45	1
43	2
41	1
40	1
39	2
37	1
34	2
32	1
31	1
29	1
24	4
21	2
19	2
17	1
16	1
15	1
